objective value:                    0.999897323581429
h-1,2                                            0.05 	(obj:0)
h-1,4                                            0.05 	(obj:0)
h-1,5                                            0.05 	(obj:0)
h-1,8                                            0.05 	(obj:0)
h-1,12                                           0.05 	(obj:0)
h-1,17                                           0.05 	(obj:0)
h-1,22                                           0.05 	(obj:0)
h-1,25                                           0.05 	(obj:0)
h-1,26                                           0.05 	(obj:0)
h-1,27                                           0.05 	(obj:0)
h-1,28                                           0.05 	(obj:0)
h-1,30                                           0.05 	(obj:0)
h-1,31                                           0.05 	(obj:0)
h-1,32                                           0.05 	(obj:0)
h-1,33                                           0.05 	(obj:0)
h-1,34                                           0.05 	(obj:0)
h-1,35                                           0.05 	(obj:0)
h-1,36                                           0.05 	(obj:0)
h-1,37                                           0.05 	(obj:0)
h-1,38                                           0.05 	(obj:0)
h-1,39                                           0.05 	(obj:0)
h-1,40                                           0.05 	(obj:0)
h-1,41                                           0.05 	(obj:0)
h-1,43                                           0.05 	(obj:0)
h-1,44                                           0.05 	(obj:0)
h-1,45                                           0.05 	(obj:0)
h-1,46                                           0.05 	(obj:0)
h-1,47                                           0.05 	(obj:0)
h-1,48                                           0.05 	(obj:0)
h-1,49                                           0.05 	(obj:0)
h-1,50                                           0.05 	(obj:0)
h-1,51                                           0.05 	(obj:0)
h-1,59                                           0.05 	(obj:0)
h-1,60                                           0.05 	(obj:0)
h-1,61                                           0.05 	(obj:0)
h-1,62                                           0.05 	(obj:0)
h-1,63                                           0.05 	(obj:0)
h-1,64                                           0.05 	(obj:0)
h-1,65                                           0.05 	(obj:0)
h-1,66                                           0.05 	(obj:0)
h-1,67                                           0.05 	(obj:0)
h-1,68                             0.0410486016193109 	(obj:0)
h-1,69                                           0.05 	(obj:0)
h-1,70                                           0.05 	(obj:0)
h-1,71                                           0.05 	(obj:0)
h-1,72                                           0.05 	(obj:0)
h-1,73                                           0.05 	(obj:0)
h-1,74                                           0.05 	(obj:0)
h-1,75                                           0.05 	(obj:0)
h-1,76                                           0.05 	(obj:0)
h-1,77                                           0.05 	(obj:0)
h-1,82                                           0.05 	(obj:0)
h-1,83                                           0.05 	(obj:0)
h-1,88                                           0.05 	(obj:0)
h-1,89                                           0.05 	(obj:0)
h-1,90                                           0.05 	(obj:0)
h-1,91                                           0.05 	(obj:0)
h-1,92                                           0.05 	(obj:0)
h-1,94                                           0.05 	(obj:0)
h-1,95                                           0.05 	(obj:0)
h-1,96                                           0.05 	(obj:0)
h-1,97                                           0.05 	(obj:0)
h-1,98                                           0.05 	(obj:0)
h-1,99                                           0.05 	(obj:0)
h-1,100                                          0.05 	(obj:0)
h-1,104                                          0.05 	(obj:0)
h-1,105                                          0.05 	(obj:0)
h-1,106                                          0.05 	(obj:0)
h-1,107                                          0.05 	(obj:0)
h-1,108                                          0.05 	(obj:0)
h-1,109                                          0.05 	(obj:0)
h-1,113                                          0.05 	(obj:0)
h-1,119                                          0.05 	(obj:0)
h-1,121                                          0.05 	(obj:0)
h-1,122                                          0.05 	(obj:0)
h-1,125                                          0.05 	(obj:0)
h-1,128                             0.199019613862038 	(obj:0)
h-1,129                                             1 	(obj:0)
h-1,130                             0.377450984716415 	(obj:0)
h-1,132                                          0.05 	(obj:0)
h-1,133                                          0.05 	(obj:0)
h-1,134                                          0.05 	(obj:0)
h-1,135                                          0.05 	(obj:0)
h-1,136                                          0.05 	(obj:0)
h-1,139                                          0.05 	(obj:0)
h-1,140                                          0.05 	(obj:0)
h-1,149                                          0.05 	(obj:0)
h-1,153                                          0.05 	(obj:0)
h-1,154                                          0.05 	(obj:0)
h-1,155                                          0.05 	(obj:0)
h-1,156                             0.291176480054855 	(obj:0)
h-1,157                                             1 	(obj:0)
h-1,158                             0.271568638086319 	(obj:0)
h-1,169                                          0.05 	(obj:0)
h-1,172                                          0.05 	(obj:0)
h-1,173                                          0.05 	(obj:0)
h-1,183                                          0.05 	(obj:0)
h-1,184                             0.579411792755127 	(obj:0)
h-1,185                             0.995098042488098 	(obj:0)
h-1,186                                          0.05 	(obj:0)
h-1,187                                          0.05 	(obj:0)
h-1,190                                          0.05 	(obj:0)
h-1,193                                          0.05 	(obj:0)
h-1,194                                          0.05 	(obj:0)
h-1,197                                          0.05 	(obj:0)
h-1,199                                          0.05 	(obj:0)
h-1,203                                          0.05 	(obj:0)
h-1,211                             0.226470592617989 	(obj:0)
h-1,212                              0.90686274766922 	(obj:0)
h-1,213                             0.538235318660736 	(obj:0)
h-1,217                                          0.05 	(obj:0)
h-1,219                                          0.05 	(obj:0)
h-1,220                                          0.05 	(obj:0)
h-1,221                                          0.05 	(obj:0)
h-1,223                                          0.05 	(obj:0)
h-1,224                                          0.05 	(obj:0)
h-1,225                                          0.05 	(obj:0)
h-1,227                                          0.05 	(obj:0)
h-1,231                                          0.05 	(obj:0)
h-1,232                                          0.05 	(obj:0)
h-1,233                                          0.05 	(obj:0)
h-1,234                                          0.05 	(obj:0)
h-1,235                                          0.05 	(obj:0)
h-1,236                                          0.05 	(obj:0)
h-1,237                                          0.05 	(obj:0)
h-1,238                                          0.05 	(obj:0)
h-1,239                             0.379411774873734 	(obj:0)
h-1,240                                             1 	(obj:0)
h-1,241                              0.19705882370472 	(obj:0)
h-1,247                                          0.05 	(obj:0)
h-1,248                                          0.05 	(obj:0)
h-1,251                                          0.05 	(obj:0)
h-1,252                                          0.05 	(obj:0)
h-1,253                                          0.05 	(obj:0)
h-1,257                                          0.05 	(obj:0)
h-1,259                                          0.05 	(obj:0)
h-1,260                                          0.05 	(obj:0)
h-1,261                                          0.05 	(obj:0)
h-1,262                                          0.05 	(obj:0)
h-1,263                                          0.05 	(obj:0)
h-1,264                                          0.05 	(obj:0)
h-1,265                                          0.05 	(obj:0)
h-1,266                                          0.05 	(obj:0)
h-1,267                             0.742156875133514 	(obj:0)
h-1,268                             0.824509811401367 	(obj:0)
h-1,269                            0.0931372560560703 	(obj:0)
h-1,274                                          0.05 	(obj:0)
h-1,275                                          0.05 	(obj:0)
h-1,279                                          0.05 	(obj:0)
h-1,281                                          0.05 	(obj:0)
h-1,282                                          0.05 	(obj:0)
h-1,285                                          0.05 	(obj:0)
h-1,286                                          0.05 	(obj:0)
h-1,287                                          0.05 	(obj:0)
h-1,288                                          0.05 	(obj:0)
h-1,289                                          0.05 	(obj:0)
h-1,290                                          0.05 	(obj:0)
h-1,291                                          0.05 	(obj:0)
h-1,292                                          0.05 	(obj:0)
h-1,293                                          0.05 	(obj:0)
h-1,294                             0.175490203499794 	(obj:0)
h-1,295                             0.946078431606293 	(obj:0)
h-1,296                             0.897058832645416 	(obj:0)
h-1,298                                          0.05 	(obj:0)
h-1,299                                          0.05 	(obj:0)
h-1,300                                          0.05 	(obj:0)
h-1,301                                          0.05 	(obj:0)
h-1,302                                          0.05 	(obj:0)
h-1,308                                          0.05 	(obj:0)
h-1,309                                          0.05 	(obj:0)
h-1,310                                          0.05 	(obj:0)
h-1,315                                          0.05 	(obj:0)
h-1,318                                          0.05 	(obj:0)
h-1,322                             0.322549027204514 	(obj:0)
h-1,323                             0.946078431606293 	(obj:0)
h-1,324                             0.714705896377563 	(obj:0)
h-1,326                                          0.05 	(obj:0)
h-1,327                                          0.05 	(obj:0)
h-1,328                                          0.05 	(obj:0)
h-1,329                                          0.05 	(obj:0)
h-1,330                                          0.05 	(obj:0)
h-1,333                             0.011657274618477 	(obj:0)
h-1,337                                          0.05 	(obj:0)
h-1,338                                          0.05 	(obj:0)
h-1,339                                          0.05 	(obj:0)
h-1,346                                          0.05 	(obj:0)
h-1,347                                          0.05 	(obj:0)
h-1,348                                          0.05 	(obj:0)
h-1,350                             0.499019634723663 	(obj:0)
h-1,351                             0.946078431606293 	(obj:0)
h-1,352                             0.351960796117783 	(obj:0)
h-1,356                                          0.05 	(obj:0)
h-1,357                                          0.05 	(obj:0)
h-1,358                                          0.05 	(obj:0)
h-1,359                                          0.05 	(obj:0)
h-1,363                                          0.05 	(obj:0)
h-1,364                                          0.05 	(obj:0)
h-1,365                                          0.05 	(obj:0)
h-1,366                                          0.05 	(obj:0)
h-1,371                                          0.05 	(obj:0)
h-1,372                                          0.05 	(obj:0)
h-1,373                                          0.05 	(obj:0)
h-1,374                                          0.05 	(obj:0)
h-1,375                                          0.05 	(obj:0)
h-1,377                             0.173529413342476 	(obj:0)
h-1,378                             0.879411768913269 	(obj:0)
h-1,379                             0.753921580314636 	(obj:0)
h-1,383                                          0.05 	(obj:0)
h-1,385                                          0.05 	(obj:0)
h-1,386                                          0.05 	(obj:0)
h-1,387                                          0.05 	(obj:0)
h-1,388                                          0.05 	(obj:0)
h-1,389                                          0.05 	(obj:0)
h-1,394                                          0.05 	(obj:0)
h-1,396                                          0.05 	(obj:0)
h-1,397                                          0.05 	(obj:0)
h-1,398                                          0.05 	(obj:0)
h-1,399                                          0.05 	(obj:0)
h-1,401                                          0.05 	(obj:0)
h-1,402                                          0.05 	(obj:0)
h-1,403                                          0.05 	(obj:0)
h-1,405                             0.436274510622025 	(obj:0)
h-1,406                                          0.95 	(obj:0)
h-1,407                             0.697058844566345 	(obj:0)
h-1,408                                          0.05 	(obj:0)
h-1,411                                          0.05 	(obj:0)
h-1,412                                          0.05 	(obj:0)
h-1,413                                          0.05 	(obj:0)
h-1,414                                          0.05 	(obj:0)
h-1,415                                          0.05 	(obj:0)
h-1,416                                          0.05 	(obj:0)
h-1,417                                          0.05 	(obj:0)
h-1,420                                          0.05 	(obj:0)
h-1,422                                          0.05 	(obj:0)
h-1,424                                          0.05 	(obj:0)
h-1,425                                          0.05 	(obj:0)
h-1,427                                          0.05 	(obj:0)
h-1,428                                          0.05 	(obj:0)
h-1,429                                          0.05 	(obj:0)
h-1,430                                          0.05 	(obj:0)
h-1,431                                          0.05 	(obj:0)
h-1,433                             0.620588254928589 	(obj:0)
h-1,434                             0.946078431606293 	(obj:0)
h-1,435                             0.267647069692612 	(obj:0)
h-1,437                                          0.05 	(obj:0)
h-1,440                                          0.05 	(obj:0)
h-1,441                                          0.05 	(obj:0)
h-1,442                                          0.05 	(obj:0)
h-1,443                                          0.05 	(obj:0)
h-1,444                                          0.05 	(obj:0)
h-1,446                                          0.05 	(obj:0)
h-1,447                                          0.05 	(obj:0)
h-1,448                                          0.05 	(obj:0)
h-1,452                                          0.05 	(obj:0)
h-1,453                                          0.05 	(obj:0)
h-1,454                                          0.05 	(obj:0)
h-1,455                                          0.05 	(obj:0)
h-1,456                                          0.05 	(obj:0)
h-1,457                                          0.05 	(obj:0)
h-1,458                                          0.05 	(obj:0)
h-1,460                            0.0441176488995552 	(obj:0)
h-1,461                             0.859803926944733 	(obj:0)
h-1,462                             0.793137264251709 	(obj:0)
h-1,463                                          0.05 	(obj:0)
h-1,467                                          0.05 	(obj:0)
h-1,468                                          0.05 	(obj:0)
h-1,469                                          0.05 	(obj:0)
h-1,471                                          0.05 	(obj:0)
h-1,473                                          0.05 	(obj:0)
h-1,474                                          0.05 	(obj:0)
h-1,475                                          0.05 	(obj:0)
h-1,478                                          0.05 	(obj:0)
h-1,480                                          0.05 	(obj:0)
h-1,481                                          0.05 	(obj:0)
h-1,482                                          0.05 	(obj:0)
h-1,483                                          0.05 	(obj:0)
h-1,484                                          0.05 	(obj:0)
h-1,485                                          0.05 	(obj:0)
h-1,486                                          0.05 	(obj:0)
h-1,488                             0.420588237047195 	(obj:0)
h-1,489                             0.946078431606293 	(obj:0)
h-1,490                             0.573529434204102 	(obj:0)
h-1,491                                          0.05 	(obj:0)
h-1,493                                          0.05 	(obj:0)
h-1,494                                          0.05 	(obj:0)
h-1,496                                          0.05 	(obj:0)
h-1,499                                          0.05 	(obj:0)
h-1,500                                          0.05 	(obj:0)
h-1,501                                          0.05 	(obj:0)
h-1,502                                          0.05 	(obj:0)
h-1,503                                          0.05 	(obj:0)
h-1,504                                          0.05 	(obj:0)
h-1,508                                          0.05 	(obj:0)
h-1,509                                          0.05 	(obj:0)
h-1,510                                          0.05 	(obj:0)
h-1,511                                          0.05 	(obj:0)
h-1,512                                          0.05 	(obj:0)
h-1,513                                          0.05 	(obj:0)
h-1,514                                          0.05 	(obj:0)
h-1,515                                          0.05 	(obj:0)
h-1,516                             0.642156887054443 	(obj:0)
h-1,517                             0.946078431606293 	(obj:0)
h-1,518                             0.506862771511078 	(obj:0)
h-1,519                                          0.05 	(obj:0)
h-1,520                                          0.05 	(obj:0)
h-1,521                                          0.05 	(obj:0)
h-1,522                                          0.05 	(obj:0)
h-1,523                                          0.05 	(obj:0)
h-1,524                                          0.05 	(obj:0)
h-1,528                                          0.05 	(obj:0)
h-1,531                                          0.05 	(obj:0)
h-1,532                                          0.05 	(obj:0)
h-1,534                                          0.05 	(obj:0)
h-1,537                                          0.05 	(obj:0)
h-1,538                                          0.05 	(obj:0)
h-1,539                                          0.05 	(obj:0)
h-1,540                                          0.05 	(obj:0)
h-1,541                                          0.05 	(obj:0)
h-1,542                                          0.05 	(obj:0)
h-1,543                                          0.05 	(obj:0)
h-1,544                             0.944117653369904 	(obj:0)
h-1,545                             0.946078431606293 	(obj:0)
h-1,546                             0.308823543787003 	(obj:0)
h-1,547                                          0.05 	(obj:0)
h-1,553                                          0.05 	(obj:0)
h-1,556                                          0.05 	(obj:0)
h-1,559                                          0.05 	(obj:0)
h-1,562                                          0.05 	(obj:0)
h-1,565                                          0.05 	(obj:0)
h-1,570                                          0.05 	(obj:0)
h-1,571                             0.289215686917305 	(obj:0)
h-1,572                                             1 	(obj:0)
h-1,573                                             1 	(obj:0)
h-1,574                             0.208823543787003 	(obj:0)
h-1,577                                          0.05 	(obj:0)
h-1,581                                          0.05 	(obj:0)
h-1,583                                          0.05 	(obj:0)
h-1,584                                          0.05 	(obj:0)
h-1,585                                          0.05 	(obj:0)
h-1,587                                          0.05 	(obj:0)
h-1,589                                          0.05 	(obj:0)
h-1,596                                          0.05 	(obj:0)
h-1,597                                          0.05 	(obj:0)
h-1,599                             0.602941203117371 	(obj:0)
h-1,600                                             1 	(obj:0)
h-1,601                             0.853921580314636 	(obj:0)
h-1,602                            0.0617647061124444 	(obj:0)
h-1,603                                          0.05 	(obj:0)
h-1,605                                          0.05 	(obj:0)
h-1,606                                          0.05 	(obj:0)
h-1,609                                          0.05 	(obj:0)
h-1,610                                          0.05 	(obj:0)
h-1,611                                          0.05 	(obj:0)
h-1,612                                          0.05 	(obj:0)
h-1,613                                          0.05 	(obj:0)
h-1,614                                          0.05 	(obj:0)
h-1,618                                          0.05 	(obj:0)
h-1,620                                          0.05 	(obj:0)
h-1,625                                          0.05 	(obj:0)
h-1,627                             0.893137264251709 	(obj:0)
h-1,628                                             1 	(obj:0)
h-1,629                             0.524509805440903 	(obj:0)
h-1,630                                          0.05 	(obj:0)
h-1,631                                          0.05 	(obj:0)
h-1,632                                          0.05 	(obj:0)
h-1,635                                          0.05 	(obj:0)
h-1,636                                          0.05 	(obj:0)
h-1,637                                          0.05 	(obj:0)
h-1,638                                          0.05 	(obj:0)
h-1,639                                          0.05 	(obj:0)
h-1,640                                          0.05 	(obj:0)
h-1,641                                          0.05 	(obj:0)
h-1,646                                          0.05 	(obj:0)
h-1,651                                          0.05 	(obj:0)
h-1,655                             0.726470601558685 	(obj:0)
h-1,656                             0.640196096897125 	(obj:0)
h-1,665                                          0.05 	(obj:0)
h-1,666                                          0.05 	(obj:0)
h-1,667                                          0.05 	(obj:0)
h-1,669                                          0.05 	(obj:0)
h-1,671                                          0.05 	(obj:0)
h-1,672                                          0.05 	(obj:0)
h-1,673                                          0.05 	(obj:0)
h-1,674                                          0.05 	(obj:0)
h-1,681                                          0.05 	(obj:0)
h-1,684                                          0.05 	(obj:0)
h-1,685                                          0.05 	(obj:0)
h-1,688                                          0.05 	(obj:0)
h-1,695                                          0.05 	(obj:0)
h-1,701                                          0.05 	(obj:0)
h-1,703                                          0.05 	(obj:0)
h-1,704                                          0.05 	(obj:0)
h-1,705                                          0.05 	(obj:0)
h-1,724                                          0.05 	(obj:0)
h-1,725                                          0.05 	(obj:0)
h-1,728                                          0.05 	(obj:0)
h-1,729                                          0.05 	(obj:0)
h-1,731                                          0.05 	(obj:0)
h-1,732                                          0.05 	(obj:0)
h-1,733                                          0.05 	(obj:0)
h-1,734                                          0.05 	(obj:0)
h-1,735                                          0.05 	(obj:0)
h-1,739                                          0.05 	(obj:0)
h-1,740                                          0.05 	(obj:0)
h-1,741                                          0.05 	(obj:0)
h-1,742                                          0.05 	(obj:0)
h-1,743                                          0.05 	(obj:0)
h-1,747                                          0.05 	(obj:0)
h-1,750                                          0.05 	(obj:0)
h-1,754                                          0.05 	(obj:0)
h-1,757                                          0.05 	(obj:0)
h-1,758                                          0.05 	(obj:0)
h-1,759                                          0.05 	(obj:0)
h-1,763                                          0.05 	(obj:0)
h-1,766                                          0.05 	(obj:0)
h-1,767                                          0.05 	(obj:0)
h-1,769                            0.0350624580550107 	(obj:0)
h-1,770                                          0.05 	(obj:0)
h-1,771                                          0.05 	(obj:0)
h-1,772                                          0.05 	(obj:0)
h-1,773                                          0.05 	(obj:0)
h-1,774                                          0.05 	(obj:0)
h-1,775                                          0.05 	(obj:0)
h-1,776                                          0.05 	(obj:0)
h-1,777                                          0.05 	(obj:0)
h-1,778                                          0.05 	(obj:0)
h-1,780                                          0.05 	(obj:0)
h-1,782                                          0.05 	(obj:0)
z0,0                                 2.18557721126908 	(obj:0)
a0,0                                0.898946574210093 	(obj:0)
z0,1                                 15.1238171310955 	(obj:0)
a0,1                                      1.000000001 	(obj:0)
z0,2                               -0.460696144280538 	(obj:0)
a0,2                                0.386811050451233 	(obj:0)
z0,3                                 9.35446183681366 	(obj:0)
a0,3                                0.999913429236383 	(obj:0)
z0,4                                 12.1783029151949 	(obj:0)
a0,4                                                1 	(obj:0)
z1,0                                -2.69067178538197 	(obj:0)
a1,0                               0.0635163547840327 	(obj:0)
z1,1                                 11.6788497433735 	(obj:0)
a1,1                                0.999994638063759 	(obj:0)
z1,2                                 6.15617291745489 	(obj:0)
a1,2                                0.997891560809887 	(obj:0)
z1,3                                 5.15345050872466 	(obj:0)
a1,3                                0.994256706608686 	(obj:0)
z1,4                                 5.73967397248071 	(obj:0)
a1,4                                0.996799445228878 	(obj:0)
z2,0                                -37.6732711241206 	(obj:0)
z2,1                                -13.4631366508602 	(obj:0)
a2,1                             7.07159366102798e-09 	(obj:-1)
z2,2                                 9.16021258590159 	(obj:0)
a2,2                                0.999897330653023 	(obj:1)
z2,3                                -7.96576877934239 	(obj:0)
a2,3                             0.000344916895159631 	(obj:0)
z2,4                                -12.9786782282925 	(obj:0)
a2,4                             2.25424390265516e-09 	(obj:0)
z2,5                                  -25.16288014893 	(obj:0)
z2,6                                -5.23341647675664 	(obj:0)
a2,6                              0.00530358152185329 	(obj:0)
z2,7                                 -23.834121147258 	(obj:0)
z2,8                                -23.2422637550663 	(obj:0)
z2,9                                -27.7329246092319 	(obj:0)
